
Gurobi 11.0.0 (win64) logging started Sat Jun 15 09:54:03 2024

Set parameter LogFile to value "./GurobiLog/stage_1_iter_11.log"
Gurobi Optimizer version 11.0.0 build v11.0.0rc2 (win64 - Windows 10.0 (18363.2))

CPU model: Intel(R) Core(TM) i7-8700 CPU @ 3.20GHz, instruction set [SSE2|AVX|AVX2]
Thread count: 6 physical cores, 12 logical processors, using up to 1 threads

Optimize a model with 1492 rows, 20461 columns and 72594 nonzeros
Coefficient statistics:
  Matrix range     [3e-03, 7e+03]
  Objective range  [1e-01, 2e+05]
  Bounds range     [4e+00, 1e+06]
  RHS range        [1e+00, 4e+04]
LP warm-start: use basis
Iteration    Objective       Primal Inf.    Dual Inf.      Time
       0    5.3044586e+04   2.343467e+03   0.000000e+00      0s
     107    5.4874483e+04   0.000000e+00   0.000000e+00      0s

Solved in 107 iterations and 0.02 seconds (0.02 work units)
Optimal objective  5.487448349e+04

Gurobi 11.0.0 (win64) logging started Sat Jun 15 10:52:18 2024

Set parameter LogFile to value "./GurobiLog/stage_1_iter_11.log"
Gurobi Optimizer version 11.0.0 build v11.0.0rc2 (win64 - Windows 10.0 (18363.2))

CPU model: Intel(R) Core(TM) i7-8700 CPU @ 3.20GHz, instruction set [SSE2|AVX|AVX2]
Thread count: 6 physical cores, 12 logical processors, using up to 1 threads

Optimize a model with 1492 rows, 20461 columns and 71130 nonzeros
Coefficient statistics:
  Matrix range     [7e-03, 7e+03]
  Objective range  [1e-01, 2e+05]
  Bounds range     [1e+01, 7e+05]
  RHS range        [1e+00, 1e+05]
LP warm-start: use basis
Iteration    Objective       Primal Inf.    Dual Inf.      Time
       0    5.1946602e+04   3.628762e+03   0.000000e+00      0s
      99    5.4683769e+04   0.000000e+00   0.000000e+00      0s

Solved in 99 iterations and 0.01 seconds (0.01 work units)
Optimal objective  5.468376945e+04
